NAME : X_38_seed_123_id_15
TYPE : CVRP
DIMENSION : 275
EDGE_WEIGHT_TYPE : EUC_2D
CAPACITY : 10
NODE_COORD_SECTION
1	91	669
2	433	862
3	347	329
4	559	665
5	400	950
6	617	757
7	632	713
8	557	653
9	564	801
10	349	313
11	409	305
12	352	342
13	361	391
14	301	328
15	395	445
16	602	828
17	442	674
18	553	675
19	570	625
20	460	191
21	589	665
22	566	551
23	322	481
24	552	700
25	443	911
26	314	296
27	417	736
28	365	280
29	293	276
30	564	594
31	427	913
32	360	289
33	588	855
34	435	906
35	763	674
36	397	867
37	385	394
38	449	932
39	619	715
40	440	270
41	276	318
42	391	789
43	565	581
44	496	628
45	689	663
46	424	970
47	615	685
48	493	808
49	198	919
50	524	640
51	393	571
52	451	859
53	329	231
54	249	375
55	627	536
56	429	869
57	445	841
58	583	838
59	513	370
60	544	648
61	369	791
62	439	919
63	593	696
64	426	798
65	350	345
66	596	600
67	640	655
68	308	364
69	510	843
70	502	378
71	291	287
72	621	811
73	359	870
74	344	315
75	284	313
76	525	580
77	509	811
78	397	886
79	403	932
80	371	394
81	381	365
82	626	654
83	384	725
84	566	622
85	368	342
86	523	832
87	560	772
88	298	789
89	331	357
90	400	858
91	401	235
92	544	701
93	476	915
94	339	344
95	419	321
96	366	352
97	456	721
98	637	621
99	301	300
100	700	697
101	215	281
102	360	808
103	405	897
104	706	579
105	553	590
106	576	595
107	448	310
108	543	628
109	302	336
110	445	855
111	506	975
112	339	389
113	383	940
114	469	814
115	383	897
116	474	763
117	331	348
118	516	881
119	534	643
120	409	807
121	518	532
122	224	410
123	485	874
124	364	362
125	638	637
126	530	688
127	471	802
128	638	727
129	376	970
130	365	900
131	428	423
132	504	660
133	579	699
134	445	258
135	206	970
136	381	400
137	426	300
138	446	833
139	504	683
140	543	527
141	399	284
142	427	605
143	405	312
144	262	772
145	463	558
146	472	809
147	380	856
148	449	843
149	510	945
150	547	632
151	411	862
152	358	863
153	416	772
154	402	866
155	347	347
156	345	294
157	315	750
158	358	413
159	477	899
160	600	670
161	418	801
162	484	865
163	434	512
164	425	914
165	648	590
166	436	863
167	536	703
168	647	651
169	333	306
170	291	316
171	374	600
172	471	876
173	385	856
174	331	379
175	556	662
176	252	398
177	573	757
178	342	362
179	432	277
180	414	845
181	539	619
182	414	674
183	558	705
184	564	683
185	373	380
186	410	945
187	470	606
188	447	959
189	424	898
190	448	857
191	530	797
192	238	238
193	353	363
194	344	223
195	290	422
196	450	758
197	453	870
198	518	927
199	557	532
200	323	317
201	578	765
202	421	316
203	584	643
204	435	864
205	436	931
206	481	846
207	560	743
208	533	870
209	427	870
210	426	929
211	331	310
212	327	322
213	540	675
214	294	456
215	419	853
216	464	418
217	337	322
218	439	852
219	394	373
220	422	784
221	428	909
222	353	849
223	499	675
224	302	365
225	355	328
226	556	660
227	596	652
228	303	444
229	365	883
230	642	737
231	555	654
232	425	692
233	386	820
234	669	714
235	562	657
236	605	585
237	339	268
238	560	825
239	451	730
240	542	688
241	615	676
242	374	370
243	587	528
244	526	689
245	437	328
246	568	650
247	359	733
248	370	830
249	500	757
250	358	309
251	511	904
252	465	781
253	572	657
254	376	311
255	537	828
256	550	642
257	498	655
258	723	656
259	330	233
260	495	599
261	275	253
262	369	291
263	350	304
264	572	618
265	629	698
266	458	838
267	564	647
268	542	647
269	341	271
270	518	824
271	184	411
272	486	661
273	422	891
274	271	328
275	491	748
DEMAND_SECTION
1	0
2	1
3	1
4	1
5	1
6	1
7	1
8	1
9	1
10	1
11	1
12	1
13	1
14	1
15	1
16	1
17	1
18	1
19	1
20	1
21	1
22	1
23	1
24	1
25	1
26	1
27	1
28	1
29	1
30	1
31	1
32	1
33	1
34	1
35	1
36	1
37	1
38	1
39	1
40	1
41	1
42	1
43	1
44	1
45	1
46	1
47	1
48	1
49	1
50	1
51	1
52	1
53	1
54	1
55	1
56	1
57	1
58	1
59	1
60	1
61	1
62	1
63	1
64	1
65	1
66	1
67	1
68	1
69	1
70	1
71	1
72	1
73	1
74	1
75	1
76	1
77	1
78	1
79	1
80	1
81	1
82	1
83	1
84	1
85	1
86	1
87	1
88	1
89	1
90	1
91	1
92	1
93	1
94	1
95	1
96	1
97	1
98	1
99	1
100	1
101	1
102	1
103	1
104	1
105	1
106	1
107	1
108	1
109	1
110	1
111	1
112	1
113	1
114	1
115	1
116	1
117	1
118	1
119	1
120	1
121	1
122	1
123	1
124	1
125	1
126	1
127	1
128	1
129	1
130	1
131	1
132	1
133	1
134	1
135	1
136	1
137	1
138	1
139	1
140	1
141	1
142	1
143	1
144	1
145	1
146	1
147	1
148	1
149	1
150	1
151	1
152	1
153	1
154	1
155	1
156	1
157	1
158	1
159	1
160	1
161	1
162	1
163	1
164	1
165	1
166	1
167	1
168	1
169	1
170	1
171	1
172	1
173	1
174	1
175	1
176	1
177	1
178	1
179	1
180	1
181	1
182	1
183	1
184	1
185	1
186	1
187	1
188	1
189	1
190	1
191	1
192	1
193	1
194	1
195	1
196	1
197	1
198	1
199	1
200	1
201	1
202	1
203	1
204	1
205	1
206	1
207	1
208	1
209	1
210	1
211	1
212	1
213	1
214	1
215	1
216	1
217	1
218	1
219	1
220	1
221	1
222	1
223	1
224	1
225	1
226	1
227	1
228	1
229	1
230	1
231	1
232	1
233	1
234	1
235	1
236	1
237	1
238	1
239	1
240	1
241	1
242	1
243	1
244	1
245	1
246	1
247	1
248	1
249	1
250	1
251	1
252	1
253	1
254	1
255	1
256	1
257	1
258	1
259	1
260	1
261	1
262	1
263	1
264	1
265	1
266	1
267	1
268	1
269	1
270	1
271	1
272	1
273	1
274	1
275	1
DEPOT_SECTION
1
-1
EOF
